GLPSOL--GLPK LP/MIP Solver 5.0
Parameter(s) specified in the command line:
 --lp ../modeles/5_134.lp --log 5_134.log
Reading problem data from '../modeles/5_134.lp'...
691 rows, 1350 columns, 4705 non-zeros
670 integer variables, all of which are binary
2052 lines were read
GLPK Integer Optimizer 5.0
691 rows, 1350 columns, 4705 non-zeros
670 integer variables, all of which are binary
Preprocessing...
670 constraint coefficient(s) were reduced
691 rows, 1345 columns, 4700 non-zeros
670 integer variables, all of which are binary
Scaling...
 A: min|aij| =  8.911e-04  max|aij| =  4.000e+00  ratio =  4.489e+03
GM: min|aij| =  1.222e-01  max|aij| =  8.185e+00  ratio =  6.700e+01
EQ: min|aij| =  1.493e-02  max|aij| =  1.000e+00  ratio =  6.700e+01
2N: min|aij| =  1.426e-02  max|aij| =  1.726e+00  ratio =  1.211e+02
Constructing initial basis...
Size of triangular part is 691
Solving LP relaxation...
GLPK Simplex Optimizer 5.0
691 rows, 1345 columns, 4700 non-zeros
      0: obj =   1.000000000e+01 inf =   2.450e+01 (11)
     84: obj =   2.819012593e-01 inf =   0.000e+00 (0)
*   274: obj =  -2.235975296e+00 inf =   1.135e-15 (0)
OPTIMAL LP SOLUTION FOUND
Integer optimization begins...
Long-step dual simplex will be used
+   274: mip =     not found yet >=              -inf        (1; 0)
+   277: >>>>>  -2.235975296e+00 >=  -2.235975296e+00 < 0.1% (3; 0)
+   277: mip =  -2.235975296e+00 >=     tree is empty   0.0% (0; 5)
INTEGER OPTIMAL SOLUTION FOUND
Time used:   0.0 secs
Memory used: 2.0 Mb (2075761 bytes)
